p cnf 150 30
x -1 -3 6 13 -17 18 -19 20 21 23 25 27 -29 -36 -38 -39 -40 41 43 45 -48 -49 -51 -54 55 57 58 -64 -65 66 67 -68 -69 -80 -82 -84 86 -93 94 95 98 102 -104 -105 -106 -107 109 113 -114 -115 116 -118 119 121 -123 -124 -126 128 129 130 -132 -133 -134 135 -136 138 -140 -141 -142 144 -146 147 149 -150 0
x -1 5 6 8 10 -13 -15 -19 20 -21 22 -23 24 -28 -29 -30 -33 -34 -35 37 -40 -46 47 48 49 -50 51 -53 54 55 64 -67 68 69 -73 -74 -75 76 79 81 -82 85 86 89 92 93 94 95 -97 -100 104 106 -108 -109 -110 -111 -113 -115 117 -121 -122 123 -124 127 -130 131 132 -135 138 -139 -141 142 -143 144 146 0
x -2 4 -8 -11 -12 -13 -15 16 17 18 -19 20 -23 -27 28 -29 -31 32 -34 -36 37 38 -39 -40 -44 47 49 53 55 57 -58 63 -66 -68 69 70 -77 -79 81 -82 83 -85 87 -89 -90 93 -96 -97 98 -99 100 -103 -105 -106 110 114 116 119 121 123 -127 129 130 -135 -137 -139 -140 -141 142 145 -147 -148 0
x 3 -8 11 14 15 16 -18 -19 -21 -22 23 27 31 34 38 40 41 -49 -51 53 -58 -59 60 -62 64 65 66 -67 -70 -73 76 78 -79 82 -83 -84 -85 86 -87 -89 -90 -91 -93 -96 97 103 104 105 106 107 -108 -113 114 -116 -117 120 -123 -125 126 128 -130 131 -132 137 -138 142 143 144 145 148 149 0
x -3 5 -6 -7 -9 -10 12 -13 -14 15 18 -22 23 -24 25 28 29 30 33 34 -35 36 -39 40 -41 44 45 48 50 51 56 -60 61 62 63 64 67 -68 -69 -76 -77 78 79 80 -81 82 85 -86 88 -90 91 95 -96 97 -99 102 -103 104 109 -110 -112 -113 -114 116 117 118 -119 -124 125 -130 131 134 135 136 -137 -138 139 140 141 142 -143 -149 0
x 2 -3 -4 -10 -11 -12 14 -16 17 -18 -20 21 -22 24 25 26 27 -31 -32 36 -38 -39 42 43 -44 -45 47 -48 -50 51 52 -57 58 60 63 64 -65 67 68 69 -70 71 72 -75 76 -80 83 -85 86 -87 93 95 96 -98 99 100 -101 -106 -111 -113 -114 115 -117 125 -128 129 -131 132 133 135 137 -139 143 146 147 148 -150 0
x 4 5 7 8 9 13 14 20 21 22 23 25 -28 -30 31 32 35 -38 39 -40 42 43 -44 -46 -47 -49 -50 -51 -52 53 -55 57 -59 60 63 64 65 66 68 69 70 72 -74 -75 78 79 81 83 84 -85 -86 -88 89 91 -97 101 104 106 -108 -111 -112 -119 122 -124 -127 128 133 134 136 137 -139 -141 -143 -145 -147 0
x 1 9 -11 -13 14 18 -20 -21 -22 23 -24 -26 -28 -30 32 -34 -36 -38 -40 -41 -42 -45 54 -55 -57 -58 -59 -60 -63 65 67 71 -75 78 80 -81 -82 -84 86 87 88 -90 -92 -93 94 98 99 -100 102 106 107 -108 109 113 -115 118 119 -120 121 122 -123 124 -125 -127 128 129 -131 -132 133 139 -141 142 -143 -146 149 0
x -1 6 -7 -9 -10 13 14 -21 24 25 -27 28 -29 30 32 -34 -36 38 -39 42 -44 -45 -47 -48 -50 -51 -52 58 -60 63 -65 -66 -68 69 70 75 76 -77 -79 -81 82 85 -86 88 -89 -90 -91 -92 -93 94 96 -98 -102 103 104 -105 106 -107 108 109 -114 115 -116 -119 -120 -121 -122 -127 128 -129 130 131 132 133 -137 138 141 -145 -146 -147 -148 0
x -1 4 -6 -7 -9 -11 -13 -14 15 16 -18 -21 22 -24 27 -28 -30 -33 -36 38 -40 41 -43 50 -51 53 -57 -58 59 61 63 66 -67 -69 -70 71 -72 -73 -79 82 -84 87 88 -89 90 -91 -92 -94 96 97 98 99 100 101 -102 103 107 108 111 -112 -114 -115 -116 121 -123 124 -125 126 -129 130 -132 134 -136 141 144 145 -147 0
x -1 -2 -3 4 -5 -8 9 -12 -13 -15 -17 -20 -21 -23 -24 -25 -28 32 -33 -37 39 40 -41 45 46 49 -53 55 56 -57 59 60 -63 -64 -65 67 68 -72 -74 -75 76 78 80 -81 87 91 93 94 96 -99 100 -101 -103 104 106 -107 111 115 -117 -118 119 -121 -126 127 128 129 -130 -132 -137 -138 142 143 -144 149 150 0
x -4 5 6 -9 -12 13 -14 -15 -16 -19 20 -22 -23 24 25 -27 29 30 -31 32 33 34 -35 -37 -39 41 -42 -43 45 -48 -49 -50 -51 54 -55 -56 57 -58 64 66 67 -68 69 71 72 83 88 89 -90 -92 94 -95 -96 -99 -101 -102 103 104 105 -106 108 -109 111 112 113 114 -115 -116 117 120 121 -122 126 127 130 -131 -132 133 134 138 -142 144 -146 -148 -149 0
x 2 -4 6 -9 11 -12 -13 -14 17 19 20 22 23 24 -25 27 -29 32 33 -36 -37 41 -42 43 45 46 48 -49 51 56 57 -59 -61 62 63 64 66 -67 -68 -69 70 -71 -73 -74 -75 76 -78 -80 -81 82 86 88 -90 -92 95 96 97 -100 -101 103 -104 -108 110 112 -114 -115 -117 -120 -121 -122 -125 126 127 128 -129 -131 132 -133 134 -135 -138 142 143 144 148 -150 0
x -2 -3 -5 6 7 14 16 -17 -19 -20 22 23 -24 -25 -33 35 36 -37 38 40 45 46 51 53 -56 -57 -59 61 63 65 66 -67 -68 69 72 -74 -75 76 -77 78 81 87 88 -89 91 93 98 -101 102 -107 -108 109 112 -119 -120 122 -124 -129 130 131 132 134 -135 138 -140 -141 -142 143 -145 149 -150 0
x -9 -13 -15 -16 -19 -23 -24 26 27 28 -31 -32 -34 35 -37 -39 40 -41 -42 -44 45 46 -48 49 52 -54 56 -58 65 70 -73 74 -76 77 79 80 81 -82 83 -84 86 -87 89 -92 93 -96 -97 -105 -107 -108 110 -113 114 -117 -122 123 -125 126 -128 -129 -130 -133 134 -136 139 142 143 -145 146 148 0
x 4 -5 6 -7 -8 -9 11 12 -14 -16 -17 -25 -26 -27 29 31 32 -33 34 -35 39 -40 -44 45 46 -47 -49 51 -53 -54 55 -56 -57 58 -62 -63 -64 65 -69 70 -72 -73 74 76 -77 -79 -82 -83 -89 -92 94 -97 -101 -104 107 -108 111 112 -113 -115 -117 -119 -120 121 -126 127 -128 130 -135 -140 142 -143 144 145 -147 0
x -3 4 6 7 8 10 13 14 15 -16 20 -24 -25 27 28 36 -37 41 44 -45 46 47 50 -53 -56 57 58 59 62 -63 66 67 -69 72 -73 74 75 77 -78 81 -82 -87 88 -89 -90 91 99 -101 -102 -103 -110 111 -113 114 -115 -119 120 125 126 129 -130 131 -132 134 -140 146 -147 149 0
x 3 9 -10 11 17 -18 -20 22 24 25 28 -32 -34 37 -39 -40 -41 42 43 45 -48 -49 -51 -52 53 -55 57 58 -61 -63 -65 -67 -71 72 -73 -78 79 -80 81 82 84 89 -91 -92 -94 -96 -97 -100 101 102 -103 -106 107 108 -109 -110 -112 -116 -117 -123 125 134 -136 -137 138 -140 -141 -142 -143 144 147 148 150 0
x -2 -3 8 -9 -10 -12 -14 16 -20 -22 24 -26 -33 34 -35 -36 -37 -38 40 -42 -43 47 -49 -52 -53 -56 -57 -60 61 62 -64 -68 69 70 71 72 73 76 77 78 -79 83 -84 85 86 -87 89 -93 -94 95 -96 98 103 -104 105 -107 -109 110 -116 -117 124 -127 129 -130 -133 -135 -136 -137 -138 139 140 -142 -143 145 147 148 150 0
x 2 3 5 6 -7 -8 -10 -11 14 15 -16 -18 -22 -23 -24 26 28 29 -30 -31 35 36 37 38 -40 -41 -42 -44 -45 51 52 -53 -54 58 59 63 65 70 -72 -80 82 84 86 87 -88 89 -92 -94 -97 99 -103 104 107 -108 112 114 -115 119 120 123 -124 125 -126 128 129 -131 -133 136 -142 144 148 -149 0
x 6 7 -8 9 10 13 -14 -15 -18 19 21 22 -24 31 34 -35 40 -41 -42 -43 -45 -50 -52 -55 -56 57 -58 59 60 -61 63 -64 66 72 -73 76 -77 78 -80 -83 95 -96 97 105 -106 107 -108 -110 111 -112 -113 -115 -119 -120 -125 126 -127 -130 -131 -133 -141 -143 -146 147 -148 150 0
x 2 -3 -4 -5 7 9 -13 -15 17 18 -19 20 -22 -25 26 -27 -30 32 33 34 -36 -37 38 40 -41 43 -45 48 49 52 -53 -56 63 64 66 67 69 70 -72 -75 76 83 -85 86 87 89 90 96 97 -99 101 -102 -104 106 -107 108 -109 -112 114 -117 -118 -119 -121 122 -126 -127 128 -129 -131 135 -138 139 -140 142 -145 -146 147 -148 149 0
x -4 5 -9 10 -11 -15 -16 17 19 -22 -27 -28 -32 34 36 -37 38 40 -41 43 -46 50 -52 -54 55 -56 -57 -58 60 -61 63 -64 -68 71 72 77 -79 81 -84 -85 86 -88 -89 -92 93 95 97 -98 100 104 105 106 -107 111 113 -114 116 119 120 121 122 -123 126 127 -128 -129 133 134 135 -136 140 142 144 145 150 0
x -2 3 4 5 7 12 13 14 15 19 -20 -21 22 -23 25 -27 28 29 31 32 -36 37 38 -42 43 -46 47 48 -50 -51 54 -55 -56 57 58 -62 67 -68 -70 -71 72 -74 -76 78 -79 81 82 84 86 87 88 -90 91 96 -99 103 104 105 108 111 112 116 119 -120 123 125 -126 -128 130 -133 136 -137 139 -140 141 -146 150 0
x -1 -2 4 -5 -10 11 -12 -15 -16 -17 -20 22 -24 -25 -27 28 29 31 -32 34 35 -36 37 -39 40 -42 43 -46 48 -49 -51 -53 54 -55 57 -59 60 62 -63 -65 66 -68 69 72 -73 76 77 79 -80 81 -82 84 -90 92 94 -96 -100 -102 105 -106 111 115 -117 -118 -119 120 122 -123 125 126 -128 132 133 135 -136 137 139 142 145 -147 148 -149 0
x 5 -8 -11 -12 14 15 16 19 20 -24 26 28 30 -31 -35 -36 -40 -43 -46 -47 -48 -49 50 52 -58 59 63 64 -67 72 -73 -74 75 77 81 83 -85 -87 -92 -97 -99 -100 101 -107 108 -110 113 -116 118 -119 120 -123 125 126 -128 -129 130 131 134 135 136 -139 140 -142 -145 -146 147 0
x 1 2 5 6 -8 -9 10 -11 -12 14 16 -19 20 -21 -22 25 -29 32 34 37 38 -40 42 -46 49 -52 -53 -55 -58 62 -64 -65 -66 67 69 -70 71 73 74 76 -77 -78 79 83 -87 89 -90 -93 -94 96 -97 98 100 -104 106 108 109 -110 -111 -113 -116 -118 -121 -127 -132 -138 141 145 146 149 0
x -2 3 -4 5 6 -7 -11 12 14 15 -16 -19 20 21 26 -27 -28 -29 30 -32 34 37 42 -43 -45 49 -50 -52 -53 -55 -58 -63 -67 69 -71 -76 -77 -79 -82 83 84 85 -90 -91 -94 -95 96 -98 99 102 -105 107 -115 -116 117 118 121 123 128 131 -132 -135 136 -137 -138 139 -142 143 -147 -148 -149 -150 0
x -1 3 5 -6 -7 -8 -10 -11 12 13 -15 18 -19 21 -23 24 -25 -27 -28 -29 -31 34 35 37 40 41 -45 -46 48 -51 52 54 55 -56 -58 63 -64 -66 -67 -68 -72 -73 -75 78 -79 -86 -90 -92 96 -97 -102 -106 109 -111 -117 119 -120 121 122 126 -127 128 -129 -131 -132 134 135 138 141 142 -143 145 -147 -148 -150 0
x 3 7 9 11 14 15 -19 21 22 25 26 -27 38 -39 -41 42 43 -44 -47 -48 51 53 54 -55 56 -59 60 63 -65 -66 -68 -74 -76 -77 80 81 -83 84 -85 -89 95 96 99 -100 101 103 -105 107 -108 -109 111 -114 -115 116 -117 119 -120 121 -122 -123 -126 131 -132 139 140 -141 142 -143 146 147 150 0
g -45